qbf_easy_train/easy_2742_SAT.qdimacs
p cnf 15 25
a 4 13 7 0
e 1 2 3 5 6 8 9 10 11 12 14 15 0
-3 1 0
-3 2 0
-1 -2 3 0
6 4 0
6 -5 0
-4 5 -6 0
-9 -7 0
-9 8 0
7 -8 9 0
-10 6 0
-10 9 0
-6 -9 10 0
11 -3 0
11 -10 0
3 10 -11 0
-14 -12 0
-14 -13 0
12 13 14 0
11 -14 -15 0
-11 14 -15 0
11 14 15 0
-11 -14 15 0
-14 15 -3 1 -6 0
-11 15 -1 -10 -12 0
15 0
