sat_easy_train/easy_2742_SAT.dimacs
p cnf 110 363
3 -1 0
3 -2 0
1 2 -3 0
-4 -3 0
-4 2 0
3 -2 4 0
1 -4 -5 0
-1 4 -5 0
1 4 5 0
-1 -4 5 0
9 -7 0
9 -8 0
7 8 -9 0
-11 -9 0
-11 -10 0
9 10 11 0
11 1 -12 0
-11 -1 -12 0
11 -1 12 0
-11 1 12 0
16 -14 0
16 -15 0
14 15 -16 0
13 16 -17 0
-13 -16 -17 0
13 -16 17 0
-13 16 17 0
-18 12 0
-18 17 0
-12 -17 18 0
19 6 0
19 -18 0
-6 18 -19 0
20 5 0
20 19 0
-5 -19 -20 0
-22 21 0
-22 7 0
-21 -7 22 0
23 22 0
23 -8 0
-22 8 -23 0
9 -6 -24 0
-9 6 -24 0
9 6 24 0
-9 -6 24 0
26 -24 0
26 25 0
24 -25 -26 0
27 11 0
27 -26 0
-11 26 -27 0
-28 -1 0
-28 -13 0
1 13 28 0
29 -24 0
29 28 0
24 -28 -29 0
-30 -27 0
-30 -29 0
27 29 30 0
31 23 0
31 30 0
-23 -30 -31 0
32 -20 0
32 31 0
20 -31 -32 0
34 33 0
34 16 0
-33 -16 -34 0
-35 34 0
-35 -12 0
-34 12 35 0
-3 -22 -36 0
3 22 -36 0
-3 22 36 0
3 -22 36 0
37 21 0
37 2 0
-21 -2 -37 0
-36 37 -38 0
36 -37 -38 0
-36 -37 38 0
36 37 38 0
39 -35 0
39 -38 0
35 38 -39 0
40 -32 0
40 39 0
32 -39 -40 0
24 -4 -41 0
-24 4 -41 0
24 4 41 0
-24 -4 41 0
43 9 0
43 -2 0
-9 2 -43 0
42 -43 -44 0
-42 43 -44 0
42 43 44 0
-42 -43 44 0
-45 -41 0
-45 -44 0
41 44 45 0
40 -45 -46 0
-40 45 -46 0
40 45 46 0
-40 -45 46 0
28 -3 -47 0
-28 3 -47 0
28 3 47 0
-28 -3 47 0
47 -12 -48 0
-47 12 -48 0
47 12 48 0
-47 -12 48 0
49 21 0
49 -36 0
-21 36 -49 0
2 -16 -50 0
-2 16 -50 0
2 16 50 0
-2 -16 50 0
49 50 -51 0
-49 -50 -51 0
49 -50 51 0
-49 50 51 0
52 -48 0
52 51 0
48 -51 -52 0
54 -53 0
54 17 0
53 -17 -54 0
-55 54 0
-55 -11 0
-54 11 55 0
-55 -53 -56 0
55 53 -56 0
-55 53 56 0
55 -53 56 0
-28 54 -57 0
28 -54 -57 0
-28 -54 57 0
28 54 57 0
-54 -57 -58 0
54 57 -58 0
-54 57 58 0
54 -57 58 0
59 -56 0
59 58 0
56 -58 -59 0
60 52 0
60 59 0
-52 -59 -60 0
27 -17 -61 0
-27 17 -61 0
27 17 61 0
-27 -17 61 0
-62 -61 0
-62 -24 0
61 24 62 0
63 62 0
63 -14 0
-62 14 -63 0
63 36 -64 0
-63 -36 -64 0
63 -36 64 0
-63 36 64 0
29 17 -65 0
-29 -17 -65 0
29 -17 65 0
-29 17 65 0
66 -65 0
66 8 0
65 -8 -66 0
-68 67 0
-68 53 0
-67 -53 68 0
-69 -68 0
-69 18 0
68 -18 69 0
70 -66 0
70 -69 0
66 69 -70 0
-71 53 0
-71 -14 0
-53 14 71 0
-72 70 0
-72 71 0
-70 -71 72 0
-28 -22 -73 0
28 22 -73 0
-28 22 73 0
28 -22 73 0
-74 72 0
-74 73 0
-72 -73 74 0
64 -74 -75 0
-64 74 -75 0
64 74 75 0
-64 -74 75 0
-15 22 -76 0
15 -22 -76 0
-15 -22 76 0
15 22 76 0
-77 -33 0
-77 -76 0
33 76 77 0
-34 77 -78 0
34 -77 -78 0
-34 -77 78 0
34 77 78 0
-29 34 -79 0
29 -34 -79 0
-29 -34 79 0
29 34 79 0
80 2 0
80 -14 0
-2 14 -80 0
-81 -80 0
-81 21 0
80 -21 81 0
9 -29 -82 0
-9 29 -82 0
9 29 82 0
-9 -29 82 0
-77 82 -83 0
77 -82 -83 0
-77 -82 83 0
77 82 83 0
-84 -29 0
-84 -10 0
29 10 84 0
85 -26 0
85 84 0
26 -84 -85 0
-83 85 -86 0
83 -85 -86 0
-83 -85 86 0
83 85 86 0
87 -81 0
87 86 0
81 -86 -87 0
88 -67 0
88 16 0
67 -16 -88 0
26 88 -89 0
-26 -88 -89 0
26 -88 89 0
-26 88 89 0
90 57 0
90 -68 0
-57 68 -90 0
-91 -89 0
-91 90 0
89 -90 91 0
62 84 -92 0
-62 -84 -92 0
62 -84 92 0
-62 84 92 0
93 -91 0
93 92 0
91 -92 -93 0
94 87 0
94 -93 0
-87 93 -94 0
-79 94 -95 0
79 -94 -95 0
-79 -94 95 0
79 94 95 0
96 -78 0
96 95 0
78 -95 -96 0
-97 -76 0
-97 33 0
76 -33 97 0
-98 -7 0
-98 97 0
7 -97 98 0
-99 -96 0
-99 98 0
96 -98 99 0
-100 75 0
-100 99 0
-75 -99 100 0
-101 -67 -102 0
101 67 -102 0
-101 67 102 0
101 -67 102 0
103 21 0
103 -102 0
-21 102 -103 0
104 22 0
104 25 0
-22 -25 -104 0
105 103 0
105 -104 0
-103 104 -105 0
-21 -27 -106 0
21 27 -106 0
-21 27 106 0
21 -27 106 0
105 106 -107 0
-105 -106 -107 0
105 -106 107 0
-105 106 107 0
108 -100 0
108 107 0
100 -107 -108 0
-109 60 0
-109 -108 0
-60 108 109 0
110 46 0
110 -109 0
-46 109 -110 0
-101 -28 0
-95 35 -98 -60 69 0
38 28 66 -110 94 -90 0
5 19 0
77 -80 53 0
36 27 -12 -66 -71 9 0
-93 95 0
57 -12 0
61 41 45 -2 58 0
48 -91 14 -38 0
97 -16 -61 2 -56 0
52 -45 36 -97 53 0
-55 -56 -76 -41 0
-3 90 58 0
-91 -109 -56 -36 0
-55 93 39 -4 15 -22 0
110 66 -57 17 0
60 100 -98 0
-5 -67 0
-12 -50 -110 0
61 2 81 0
-69 61 0
-28 46 -25 2 -50 0
13 -25 -7 78 96 0
-25 52 49 0
-23 -82 0
-26 -53 -33 -8 16 0
80 78 -11 91 12 108 0
-88 65 0
48 101 8 20 0
-75 -48 44 0
-77 22 -96 61 7 68 0
-16 -97 96 -106 0
89 67 -54 0
-71 10 0
30 45 -58 86 -62 0
-55 49 0
37 -51 -10 78 19 0
37 -6 63 54 0
58 -35 63 73 -32 54 0
-6 -63 32 67 84 0
22 -93 40 80 66 -44 0
-48 29 96 -88 -106 75 0
-67 -64 -77 0
-110 37 76 48 -45 0
93 -100 -40 0
42 -30 0
110 0
